9 -1 10 1 -1 6 10 3 5 -1 
6 1 2 10 7 0 4 3 -1 -1 
0 5 6 2 0 -1 2 1 10 -1 
5 10 9 2 -1 5 6 1 4 -1 
3 0 -1 2 5 9 7 7 5 -1 
8 2 5 7 4 10 2 5 4 -1 
1 5 -1 1 10 9 5 2 10 -1 
9 1 9 10 6 -1 3 10 0 -1 
5 2 5 5 9 6 7 10 -1 -1 
2 5 -1 4 4 0 5 6 3 -1 
5 0 8 2 3 6 4 8 4 -1 
7 4 8 2 8 -1 7 9 -1 -1 
2 9 3 4 8 0 4 3 5 -1 
9 9 4 -1 -1 10 7 5 3 -1 
5 7 2 7 6 9 7 8 3 -1 
5 1 10 4 6 9 5 7 -1 -1 
3 -1 3 6 -1 1 0 9 2 -1 
2 10 9 6 7 -1 8 -1 9 -1 
3 5 1 10 0 4 5 6 2 -1 
8 7 8 5 9 7 10 5 1 -1 
9 0 1 1 9 10 2 6 2 -1 
9 1 2 8 8 7 2 2 -1 -1 
5 2 9 -1 5 3 5 3 -1 -1 
1 -1 -1 3 -1 7 5 5 9 -1 
0 -1 0 2 9 6 9 6 5 -1 
7 9 1 6 3 -1 6 3 10 -1 
6 9 3 -1 5 7 6 6 8 -1 
3 8 4 3 1 0 8 -1 1 -1 
4 2 9 -1 7 9 10 7 6 -1 
3 -1 0 4 1 6 0 -1 7 -1 
-1 3 3 10 2 7 -1 6 4 -1 
1 9 10 3 8 6 10 8 10 -1 
9 0 3 1 5 10 5 8 7 -1 
0 4 7 7 2 4 0 -1 0 -1 
9 1 5 -1 -1 4 1 10 2 -1 
3 9 0 0 6 7 10 1 -1 -1 
4 2 9 2 2 -1 2 1 10 -1 
8 6 10 -1 8 -1 6 -1 5 -1 
4 4 0 1 4 0 9 1 8 -1 
1 2 2 5 2 10 0 8 4 -1 
3 0 7 1 -1 3 -1 8 6 -1 
2 10 7 5 8 1 2 3 1 -1 
2 -1 7 7 4 1 0 2 9 -1 
5 3 6 -1 2 5 0 5 2 -1 
9 7 6 0 7 -1 3 -1 7 -1 
4 2 7 7 6 2 10 6 8 -1 
4 4 1 8 6 8 5 7 8 -1 
2 10 2 7 6 4 3 2 5 -1 
1 5 0 5 2 4 6 10 -1 -1 
-1 10 0 10 3 7 2 7 8 -1 
